# Molecular Dynamics - Input Script for Evaluation of H2O Solvated PEG Deformation

# 1) Initialization
units real
atom_style full
bond_style harmonic
angle_style harmonic
dihedral_style harmonic
pair_style lj/cut/coul/long 12
kspace_style pppm 1e-5
special_bonds lj 0.0 0.0 0.5 coul 0.0 0.0 1.0 angle yes dihedral yes
variable force_0 equal 5

# 2) System Definition
read_data ../../solvated-PEG/solvated_PEG.data

# 3) Simulation Settings
include ../../H2O-PEG-parameters.lammps

group H2O type 8 9
group PEG type 1 2 3 4 5 6 7

group pull_oxygen_6 type 6
group pull_oxygen_7 type 7

# 4) Run
dump dump_all_atoms_per_1000_timestep all atom 1000 trajectory-output-data/dump_all_atoms_per_1000_timestep.lammpstrj
thermo 100

fix nvt_ensemble all nvt temp 300 300 100
timestep 1.0

compute dihedral_angles all dihedral/local phi
fix ave_dihedral_histograms all ave/histo 10 2000 30000 0 180 500 c_dihedral_angles &
    file ave-time-output-data/initial_dihedral.histo mode vector

run 30000
unfix ave_dihedral_histograms

variable peg_com_x equal xcm(PEG,x)
variable peg_com_y equal xcm(PEG,y)
variable peg_com_z equal xcm(PEG,z)
fix recenter_PEG PEG recenter ${peg_com_x} ${peg_com_y} ${peg_com_z}

fix oxygen_6_force pull_oxygen_6 addforce ${force_0} 0 0
fix oxygen_7_force pull_oxygen_7 addforce -${force_0} 0 0

run 30000