# Molecular Dynamics - Unbreakable Carbon Nanotube

# 1) Initialization
variable T equal 300

units real
atom_style molecular
boundary f f f
pair_style lj/cut 14

bond_style harmonic
angle_style harmonic
dihedral_style opls
improper_style harmonic

special_bonds lj 0.0 0.0 0.5

# 2) System definition
## Import VMD Generated Initial Carbon Nanotube Topography
read_data cnt_molecular.data

# 3) Simulation settings
## Import OPLS-AA Force Field Bonded & Non-Bonded Potentials
include parm.lammps

##
-40.000000 40.000000  xlo xhi
-40.000000 40.000000  ylo yhi
-12.130411 67.869589  zlo zhi

## Recenter the Carbon Nanotube at the Origin (0, 0, 0)
group carbon_atoms type 1
variable carbon_xcm equal -1*xcm(carbon_atoms,x)
variable carbon_ycm equal -1*xcm(carbon_atoms,y)
variable carbon_zcm equal -1*xcm(carbon_atoms,z)
displace_atoms carbon_atoms & move ${carbon_xcm} ${carbon_ycm} ${carbon_zcm}

## Ensure Box Boundaries are Symmetric W.R.T the Origin (0, 0, 0)
change_box all x final -40 40 y final -40 40 z final -40 40

# Define Top Edge Region, Bottom Edge Region, & Middle Region of Carbon Nanotube
variable zmax equal bound(carbon_atoms,zmax)-0.5 # (- 0.5 Å)
variable zmin equal bound(carbon_atoms,zmin)+0.5 # (+ 0.5 Å)
region rtop block INF INF INF INF ${zmax} INF
region rbot block INF INF INF INF INF ${zmin}
region rmid block INF INF INF INF ${zmin} ${zmax}

# Group Atoms According to this Region
group carbon_top region rtop
group carbon_bot region rbot
group carbon_mid region rmid

# 4) Visualization
## Randomly Delete Non-Edge Carbon Atoms
variable zmax_del equal ${zmax}-2
variable zmin_del equal ${zmin}+2
region rdel block INF INF INF INF ${zmin_del} ${zmax_del}
group rdel region rdel
delete_atoms random fraction 0.02 no rdel NULL 482793 bond yes

# 5) Run
reset_atoms id sort yes
velocity carbon_mid create ${T} 48455 mom yes rot yes
fix mynve all nve
compute Tmid carbon_mid temp
fix myber carbon_mid temp/berendsen ${T} ${T} 100
fix_modify myber temp Tmid

fix mysf1 carbon_top setforce 0 0 0
fix mysf2 carbon_bot setforce 0 0 0
velocity carbon_top set 0 0 0
velocity carbon_bot set 0 0 0

variable L equal xcm(carbon_top,z)-xcm(carbon_bot,z)
fix at1 all ave/time 10 10 100 v_L file output_cnt_length.dat
fix at2 all ave/time 10 10 100 f_mysf1[1] f_mysf2[1] & file output_edge_force.dat

dump mydmp all atom 1000 dump.lammpstrj

fix at3 all ave/time 10 10 100 c_Tmid &
    file output_temperature_middle_group.dat

thermo 100
thermo_modify temp Tmid

timestep 1.0
run 5000

# 2*0.0005 A/fs = 0.001 A/fs = 100 m/s
velocity carbon_top set 0 0 0.0005
velocity carbon_bot set 0 0 -0.0005
run 10000