# PART A - ENERGY MINIMIZATION

# 1) Initialization
variable T equal 300

units real
atom_style molecular
boundary f f f
pair_style lj/cut 14

bond_style harmonic
angle_style harmonic
dihedral_style opls
improper_style harmonic

special_bonds lj 0.0 0.0 0.5

# 2) System definition
read_data cnt_molecular.data

# 3) Simulation settings

## Bonded & Non-Bonded Potentials
pair_coeff 1 1 0.066 3.4
bond_coeff 1 469 1.4
angle_coeff 1 63 120
dihedral_coeff 1 0 7.25 0 0
improper_coeff 1 5 180

include parm.lammps

-40.000000 40.000000  xlo xhi
-40.000000 40.000000  ylo yhi
-12.130411 67.869589  zlo zhi

group carbon_atoms type 1
variable carbon_xcm equal -1*xcm(carbon_atoms,x)
variable carbon_ycm equal -1*xcm(carbon_atoms,y)
variable carbon_zcm equal -1*xcm(carbon_atoms,z)
displace_atoms carbon_atoms & move ${carbon_xcm} ${carbon_ycm} ${carbon_zcm}

change_box all x final -40 40 y final -40 40 z final -40 40